db/data/287541183920664276385990191692225538.z3.out
-------------------
2500.176828656
